
Gurobi 12.0.1 (win64) logging started Sat Mar 22 16:40:14 2025

Set parameter LogFile to value "gurobi_log_2.txt"

Gurobi 12.0.1 (win64) logging started Sat Mar 22 16:40:14 2025

Set parameter LogFile to value "gurobi_log_2.txt"
Warning for adding constraints: zero or small (< 1e-13) coefficients, ignored
Gurobi Optimizer version 12.0.1 build v12.0.1rc0 (win64 - Windows Server 2019.0 (17763.2))

CPU model: Intel(R) Xeon(R) CPU E5-2667 v4 @ 3.20GHz, instruction set [SSE2|AVX|AVX2]
Thread count: 16 physical cores, 32 logical processors, using up to 32 threads

Non-default parameters:
TimeLimit  180
FeasibilityTol  1e-05
OptimalityTol  1e-05
BarConvTol  1e-05

Optimize a model with 24300 rows, 16200 columns and 18334197 nonzeros
Model fingerprint: 0xf68b781e
Coefficient statistics:
  Matrix range     [1e-13, 1e+01]
  Objective range  [1e+00, 1e+00]
  Bounds range     [0e+00, 0e+00]
  RHS range        [1e-26, 3e+00]
Presolve removed 9647 rows and 887 columns (presolve time = 7s)...
Presolve removed 9647 rows and 887 columns (presolve time = 10s)...
Presolve removed 10632 rows and 1794 columns

Concurrent LP optimizer: primal simplex, dual simplex, and barrier
Showing barrier log only...

Ordering time: 1.00s

Barrier statistics:
 Free vars  : 3632
 AA' NZ     : 1.084e+07
 Factor NZ  : 1.818e+07 (roughly 150 MB of memory)
 Factor Ops : 7.171e+10 (roughly 1 second per iteration)
 Threads    : 14

                  Objective                Residual
Iter       Primal          Dual         Primal    Dual     Compl     Time
   0   4.29606857e+04  1.34470247e+00  2.94e+00 4.73e+00  1.13e+01    27s
   1   8.60022658e+03  3.95253510e+01  6.58e-02 3.63e-03  1.18e+00    29s
   2   5.59153152e+02  8.17710077e+01  3.00e-03 2.88e-04  6.55e-02    31s
   3   1.38904726e+02  1.01801623e+02  8.38e-05 4.92e-05  5.09e-03    32s
   4   1.12119480e+02  1.07528951e+02  4.68e-06 3.85e-06  6.30e-04    34s

Barrier performed 4 iterations in 34.40 seconds (27.73 work units)
Barrier solve interrupted - model solved by another algorithm


Solved with dual simplex
